letting n =  10
letting blocks =  [[1, 2], [1, 5], [1, 6], [1, 7], [1, 8], [1, 9], [2, 1], [2, 2], [2, 3], [2, 5], [2, 6], [2, 10], [3, 1], [3, 2], [3, 4], [3, 6], [3, 8], [3, 9], [4, 1], [4, 4], [4, 5], [4, 6], [4, 7], [4, 8], [5, 1], [5, 5], [5, 6], [5, 7], [5, 8], [5, 10], [6, 1], [6, 2], [6, 3], [6, 4], [6, 8], [6, 9], [7, 1], [7, 3], [7, 5], [7, 7], [7, 8], [7, 10], [8, 2], [8, 3], [8, 4], [8, 5], [8, 7], [8, 9], [9, 2], [9, 4], [9, 6], [9, 7], [9, 9], [9, 10], [10, 3], [10, 4], [10, 9], [10, 10]]
